\ Model qkp01
\ LP format - for model browsing. Use MPS format to capture full model detail.
Maximize
  15 x_7 + 42 x_12 + 37 x_17 + 43 x_21 + 33 x_22 + 6 x_35 + 42 x_49
   + 38 x_50 + 6 x_57 + 49 x_59 + 31 x_62 + 2 x_67 + 34 x_72 + 13 x_73
   + 7 x_76 + 38 x_78 + 4 x_79 + 22 x_81 + 33 x_86 + 36 x_94 + 50 x_98
   + 21 x_99 + [ 78 x_1 * x_8 + 74 x_1 * x_11 + 36 x_1 * x_14
   + 50 x_1 * x_16 + 74 x_1 * x_26 + 66 x_1 * x_30 + 98 x_1 * x_37
   + 52 x_1 * x_38 + 58 x_1 * x_41 + 28 x_1 * x_46 + 18 x_1 * x_47
   + 44 x_1 * x_58 + 58 x_1 * x_60 + 84 x_1 * x_62 + 94 x_1 * x_65
   + 38 x_1 * x_69 + 88 x_1 * x_71 + 2 x_1 * x_73 + 96 x_1 * x_79
   + 50 x_1 * x_83 + 26 x_1 * x_86 + 66 x_1 * x_87 + 64 x_1 * x_89
   + 64 x_1 * x_93 + 100 x_1 * x_95 + 68 x_1 * x_97 + 12 x_2 * x_3
   + 12 x_2 * x_5 + 58 x_2 * x_7 + 28 x_2 * x_8 + 8 x_2 * x_9
   + 76 x_2 * x_11 + 62 x_2 * x_16 + 28 x_2 * x_21 + 94 x_2 * x_27
   + 12 x_2 * x_33 + 68 x_2 * x_37 + 50 x_2 * x_39 + 24 x_2 * x_48
   + 4 x_2 * x_49 + 54 x_2 * x_52 + 42 x_2 * x_64 + 98 x_2 * x_72
   + 62 x_2 * x_75 + 20 x_2 * x_76 + 70 x_2 * x_86 + 70 x_2 * x_87
   + 14 x_2 * x_95 + 38 x_2 * x_98 + 88 x_3 * x_7 + 4 x_3 * x_8
   + 2 x_3 * x_10 + 46 x_3 * x_12 + 50 x_3 * x_14 + 98 x_3 * x_21
   + 56 x_3 * x_24 + 24 x_3 * x_26 + 38 x_3 * x_29 + 98 x_3 * x_37
   + 74 x_3 * x_44 + 42 x_3 * x_50 + 78 x_3 * x_53 + 22 x_3 * x_55
   + 34 x_3 * x_66 + 70 x_3 * x_67 + 86 x_3 * x_70 + 58 x_3 * x_74
   + 20 x_3 * x_76 + 56 x_3 * x_77 + 34 x_3 * x_84 + 92 x_3 * x_90
   + 98 x_3 * x_92 + 32 x_3 * x_98 + 74 x_3 * x_100 + 42 x_4 * x_10
   + 40 x_4 * x_13 + 94 x_4 * x_16 + 98 x_4 * x_18 + 4 x_4 * x_20
   + 8 x_4 * x_21 + 84 x_4 * x_23 + 100 x_4 * x_24 + 66 x_4 * x_27
   + 66 x_4 * x_28 + 40 x_4 * x_29 + 16 x_4 * x_35 + 12 x_4 * x_37
   + 86 x_4 * x_40 + 42 x_4 * x_44 + 82 x_4 * x_46 + 46 x_4 * x_53
   + 8 x_4 * x_63 + 52 x_4 * x_72 + 14 x_4 * x_84 + 16 x_4 * x_89
   + 12 x_4 * x_90 + 56 x_4 * x_91 + 24 x_4 * x_95 + 98 x_4 * x_100
   + 60 x_5 * x_6 + 98 x_5 * x_8 + 90 x_5 * x_19 + 36 x_5 * x_20
   + 84 x_5 * x_21 + 30 x_5 * x_27 + 98 x_5 * x_34 + 40 x_5 * x_39
   + 50 x_5 * x_48 + 20 x_5 * x_49 + 58 x_5 * x_55 + 10 x_5 * x_56
   + 70 x_5 * x_66 + 94 x_5 * x_74 + 52 x_5 * x_83 + 48 x_5 * x_84
   + 16 x_5 * x_86 + 46 x_5 * x_87 + 76 x_5 * x_94 + 60 x_5 * x_95
   + 36 x_6 * x_10 + 72 x_6 * x_17 + 20 x_6 * x_20 + 18 x_6 * x_21
   + 38 x_6 * x_22 + 36 x_6 * x_29 + 56 x_6 * x_34 + 74 x_6 * x_35
   + 72 x_6 * x_50 + 72 x_6 * x_55 + 22 x_6 * x_56 + 72 x_6 * x_65
   + 4 x_6 * x_66 + 42 x_6 * x_70 + 30 x_6 * x_72 + 80 x_6 * x_73
   + 36 x_6 * x_82 + 96 x_6 * x_83 + 94 x_6 * x_87 + 28 x_6 * x_98
   + 72 x_7 * x_8 + 32 x_7 * x_13 + 86 x_7 * x_14 + 52 x_7 * x_15
   + 8 x_7 * x_16 + 56 x_7 * x_22 + 86 x_7 * x_26 + 92 x_7 * x_32
   + 50 x_7 * x_33 + 98 x_7 * x_35 + 76 x_7 * x_39 + 40 x_7 * x_49
   + 60 x_7 * x_62 + 86 x_7 * x_63 + 70 x_7 * x_69 + 88 x_7 * x_76
   + 12 x_7 * x_83 + 72 x_7 * x_92 + 32 x_7 * x_94 + 20 x_7 * x_95
   + 26 x_7 * x_98 + 68 x_7 * x_100 + 30 x_8 * x_11 + 50 x_8 * x_26
   + 50 x_8 * x_28 + 34 x_8 * x_31 + 22 x_8 * x_33 + 76 x_8 * x_37
   + 38 x_8 * x_43 + 60 x_8 * x_46 + 52 x_8 * x_60 + 94 x_8 * x_62
   + 24 x_8 * x_72 + 54 x_8 * x_74 + 4 x_8 * x_78 + 80 x_8 * x_80
   + 52 x_8 * x_82 + 6 x_8 * x_83 + 26 x_8 * x_92 + 50 x_8 * x_94
   + 4 x_9 * x_10 + 16 x_9 * x_11 + 56 x_9 * x_19 + 82 x_9 * x_22
   + 26 x_9 * x_26 + 8 x_9 * x_33 + 32 x_9 * x_41 + 12 x_9 * x_45
   + 92 x_9 * x_47 + 90 x_9 * x_53 + 86 x_9 * x_63 + 64 x_9 * x_70
   + 34 x_9 * x_80 + 98 x_9 * x_81 + 52 x_9 * x_82 + 24 x_9 * x_93
   + 48 x_10 * x_11 + 62 x_10 * x_14 + 46 x_10 * x_15 + 10 x_10 * x_19
   + 46 x_10 * x_35 + 78 x_10 * x_36 + 60 x_10 * x_47 + 74 x_10 * x_52
   + 50 x_10 * x_57 + 24 x_10 * x_60 + 24 x_10 * x_64 + 56 x_10 * x_65
   + 70 x_10 * x_68 + 74 x_10 * x_74 + 100 x_10 * x_77 + 4 x_10 * x_84
   + 66 x_10 * x_89 + 10 x_10 * x_93 + 66 x_10 * x_97 + 66 x_11 * x_18
   + 26 x_11 * x_25 + 12 x_11 * x_26 + 64 x_11 * x_30 + 60 x_11 * x_35
   + 76 x_11 * x_37 + 70 x_11 * x_40 + 72 x_11 * x_41 + 10 x_11 * x_43
   + 80 x_11 * x_45 + 46 x_11 * x_47 + 60 x_11 * x_51 + 94 x_11 * x_53
   + 54 x_11 * x_58 + 6 x_11 * x_59 + 58 x_11 * x_60 + 12 x_11 * x_61
   + 44 x_11 * x_68 + 36 x_11 * x_70 + 40 x_11 * x_72 + 18 x_11 * x_73
   + 100 x_11 * x_81 + 76 x_11 * x_82 + 76 x_11 * x_96 + 18 x_11 * x_97
   + 38 x_11 * x_100 + 26 x_12 * x_14 + 94 x_12 * x_16 + 38 x_12 * x_21
   + 24 x_12 * x_23 + 60 x_12 * x_24 + 74 x_12 * x_27 + 86 x_12 * x_32
   + 88 x_12 * x_44 + 60 x_12 * x_49 + 22 x_12 * x_51 + 32 x_12 * x_55
   + 90 x_12 * x_58 + 12 x_12 * x_62 + 12 x_12 * x_64 + 82 x_12 * x_74
   + 22 x_12 * x_75 + 34 x_12 * x_76 + 62 x_12 * x_77 + 38 x_12 * x_78
   + 82 x_12 * x_80 + 38 x_12 * x_87 + 48 x_12 * x_89 + 74 x_12 * x_93
   + 14 x_12 * x_94 + 86 x_13 * x_14 + 62 x_13 * x_15 + 48 x_13 * x_17
   + 38 x_13 * x_22 + 100 x_13 * x_23 + 40 x_13 * x_26 + 38 x_13 * x_31
   + 36 x_13 * x_36 + 68 x_13 * x_38 + 44 x_13 * x_44 + 44 x_13 * x_45
   + 88 x_13 * x_46 + 2 x_13 * x_48 + 40 x_13 * x_57 + 46 x_13 * x_64
   + 58 x_13 * x_65 + 26 x_13 * x_66 + 22 x_13 * x_68 + 100 x_13 * x_71
   + 64 x_13 * x_86 + 48 x_13 * x_88 + 86 x_13 * x_91 + 38 x_13 * x_93
   + 20 x_13 * x_94 + 34 x_13 * x_96 + 58 x_13 * x_97 + 32 x_13 * x_98
   + 42 x_14 * x_20 + 92 x_14 * x_21 + 92 x_14 * x_23 + 24 x_14 * x_26
   + 18 x_14 * x_30 + 30 x_14 * x_37 + 12 x_14 * x_38 + 48 x_14 * x_44
   + 82 x_14 * x_47 + 40 x_14 * x_54 + 82 x_14 * x_55 + 68 x_14 * x_59
   + 42 x_14 * x_64 + 26 x_14 * x_70 + 76 x_14 * x_78 + 10 x_14 * x_81
   + 88 x_14 * x_82 + 88 x_14 * x_86 + 20 x_14 * x_91 + 30 x_14 * x_94
   + 92 x_14 * x_95 + 92 x_15 * x_16 + 26 x_15 * x_17 + 34 x_15 * x_18
   + 100 x_15 * x_20 + 44 x_15 * x_26 + 84 x_15 * x_44 + 94 x_15 * x_48
   + 4 x_15 * x_51 + 36 x_15 * x_55 + 48 x_15 * x_56 + 50 x_15 * x_57
   + 88 x_15 * x_60 + 30 x_15 * x_63 + 10 x_15 * x_71 + 38 x_15 * x_73
   + 62 x_15 * x_74 + 96 x_15 * x_75 + 34 x_15 * x_86 + 68 x_15 * x_91
   + 48 x_15 * x_94 + 62 x_15 * x_100 + 96 x_16 * x_19 + 36 x_16 * x_24
   + 70 x_16 * x_25 + 96 x_16 * x_32 + 46 x_16 * x_33 + 38 x_16 * x_40
   + 52 x_16 * x_47 + 88 x_16 * x_48 + 8 x_16 * x_49 + 52 x_16 * x_50
   + 46 x_16 * x_51 + 78 x_16 * x_56 + 44 x_16 * x_58 + 22 x_16 * x_64
   + 46 x_16 * x_65 + 90 x_16 * x_69 + 96 x_16 * x_71 + 88 x_16 * x_72
   + 34 x_16 * x_73 + 24 x_16 * x_74 + 8 x_16 * x_85 + 12 x_16 * x_86
   + 38 x_17 * x_19 + 38 x_17 * x_20 + 58 x_17 * x_21 + 20 x_17 * x_22
   + 64 x_17 * x_23 + 34 x_17 * x_25 + 32 x_17 * x_31 + 44 x_17 * x_37
   + 18 x_17 * x_41 + 98 x_17 * x_43 + 8 x_17 * x_59 + 60 x_17 * x_61
   + 60 x_17 * x_65 + 4 x_17 * x_70 + 98 x_17 * x_72 + 40 x_17 * x_75
   + 20 x_17 * x_86 + 2 x_17 * x_88 + 32 x_17 * x_89 + 84 x_17 * x_90
   + 20 x_17 * x_92 + 90 x_17 * x_93 + 4 x_17 * x_98 + 98 x_17 * x_99
   + 96 x_18 * x_19 + 34 x_18 * x_20 + 56 x_18 * x_25 + 74 x_18 * x_32
   + 44 x_18 * x_37 + 48 x_18 * x_39 + 20 x_18 * x_44 + 12 x_18 * x_65
   + 72 x_18 * x_80 + 68 x_18 * x_87 + 100 x_18 * x_88 + 54 x_18 * x_96
   + 90 x_18 * x_98 + 54 x_18 * x_99 + 86 x_19 * x_21 + 46 x_19 * x_29
   + 54 x_19 * x_30 + 60 x_19 * x_31 + 96 x_19 * x_36 + 60 x_19 * x_38
   + 60 x_19 * x_41 + 30 x_19 * x_42 + 52 x_19 * x_47 + 44 x_19 * x_54
   + 8 x_19 * x_58 + 46 x_19 * x_68 + 40 x_19 * x_72 + 24 x_19 * x_76
   + 32 x_19 * x_77 + 2 x_19 * x_80 + 84 x_19 * x_82 + 6 x_19 * x_83
   + 72 x_19 * x_86 + 6 x_19 * x_87 + 2 x_19 * x_93 + 18 x_19 * x_100
   + 10 x_20 * x_25 + 12 x_20 * x_35 + 66 x_20 * x_36 + 14 x_20 * x_38
   + 88 x_20 * x_40 + 20 x_20 * x_41 + 70 x_20 * x_46 + 84 x_20 * x_47
   + 68 x_20 * x_48 + 54 x_20 * x_49 + 56 x_20 * x_54 + 10 x_20 * x_61
   + 82 x_20 * x_62 + 84 x_20 * x_66 + 42 x_20 * x_68 + 82 x_20 * x_82
   + 6 x_20 * x_84 + 86 x_20 * x_85 + 34 x_20 * x_86 + 50 x_20 * x_89
   + 82 x_20 * x_97 + 84 x_20 * x_98 + 62 x_20 * x_99 + 54 x_21 * x_23
   + 76 x_21 * x_24 + 96 x_21 * x_27 + 32 x_21 * x_28 + 84 x_21 * x_33
   + 28 x_21 * x_34 + 2 x_21 * x_35 + 40 x_21 * x_40 + 64 x_21 * x_42
   + 12 x_21 * x_43 + 22 x_21 * x_48 + 68 x_21 * x_52 + 46 x_21 * x_55
   + 80 x_21 * x_56 + 60 x_21 * x_58 + 2 x_21 * x_69 + 78 x_21 * x_76
   + 60 x_21 * x_79 + 82 x_21 * x_81 + 12 x_21 * x_82 + 20 x_21 * x_84
   + 4 x_21 * x_91 + 36 x_21 * x_92 + 78 x_21 * x_94 + 22 x_21 * x_97
   + 68 x_22 * x_40 + 16 x_22 * x_44 + 14 x_22 * x_46 + 54 x_22 * x_48
   + 76 x_22 * x_58 + 52 x_22 * x_66 + 34 x_22 * x_67 + 18 x_22 * x_68
   + 34 x_22 * x_71 + 24 x_22 * x_72 + 86 x_22 * x_75 + 46 x_22 * x_80
   + 86 x_22 * x_88 + 74 x_22 * x_89 + 12 x_22 * x_90 + 30 x_22 * x_91
   + 38 x_23 * x_29 + 66 x_23 * x_32 + 46 x_23 * x_34 + 22 x_23 * x_45
   + 92 x_23 * x_47 + 58 x_23 * x_48 + 72 x_23 * x_49 + 38 x_23 * x_50
   + 68 x_23 * x_51 + 88 x_23 * x_53 + 4 x_23 * x_60 + 68 x_23 * x_63
   + 58 x_23 * x_66 + 36 x_23 * x_68 + 32 x_23 * x_70 + 2 x_23 * x_72
   + 2 x_23 * x_79 + 18 x_23 * x_83 + 4 x_23 * x_85 + 40 x_23 * x_88
   + 34 x_23 * x_89 + 86 x_23 * x_91 + 72 x_23 * x_97 + 10 x_24 * x_25
   + 14 x_24 * x_32 + 20 x_24 * x_33 + 48 x_24 * x_36 + 70 x_24 * x_45
   + 44 x_24 * x_46 + 8 x_24 * x_47 + 40 x_24 * x_49 + 42 x_24 * x_55
   + 74 x_24 * x_65 + 94 x_24 * x_67 + 14 x_24 * x_69 + 78 x_24 * x_70
   + 36 x_24 * x_72 + 78 x_24 * x_80 + 64 x_24 * x_87 + 12 x_24 * x_90
   + 30 x_24 * x_92 + 20 x_24 * x_96 + 16 x_24 * x_98 + 20 x_25 * x_29
   + 78 x_25 * x_33 + 52 x_25 * x_35 + 76 x_25 * x_37 + 80 x_25 * x_39
   + 46 x_25 * x_41 + 40 x_25 * x_44 + 56 x_25 * x_46 + 68 x_25 * x_50
   + 28 x_25 * x_56 + 36 x_25 * x_66 + 8 x_25 * x_67 + 48 x_25 * x_75
   + 18 x_25 * x_83 + 40 x_25 * x_84 + 20 x_25 * x_86 + 60 x_25 * x_87
   + 60 x_25 * x_90 + 56 x_25 * x_93 + 6 x_25 * x_94 + 96 x_25 * x_97
   + 6 x_26 * x_28 + 34 x_26 * x_30 + 56 x_26 * x_31 + 42 x_26 * x_34
   + 44 x_26 * x_62 + 60 x_26 * x_66 + 78 x_26 * x_73 + 28 x_26 * x_78
   + 90 x_26 * x_88 + 34 x_26 * x_94 + 84 x_26 * x_95 + 58 x_27 * x_36
   + 100 x_27 * x_39 + 56 x_27 * x_44 + 78 x_27 * x_45 + 62 x_27 * x_51
   + 92 x_27 * x_53 + 92 x_27 * x_56 + 16 x_27 * x_57 + 70 x_27 * x_59
   + 56 x_27 * x_68 + 100 x_27 * x_79 + 86 x_27 * x_85 + 12 x_27 * x_87
   + 98 x_27 * x_89 + 74 x_27 * x_93 + 48 x_27 * x_97 + 8 x_27 * x_98
   + 42 x_27 * x_99 + 46 x_28 * x_30 + 14 x_28 * x_31 + 68 x_28 * x_41
   + 94 x_28 * x_42 + 20 x_28 * x_44 + 22 x_28 * x_49 + 34 x_28 * x_57
   + 84 x_28 * x_64 + 8 x_28 * x_70 + 10 x_28 * x_71 + 90 x_28 * x_78
   + 64 x_28 * x_91 + 18 x_28 * x_96 + 98 x_29 * x_30 + 88 x_29 * x_33
   + 18 x_29 * x_38 + 14 x_29 * x_52 + 20 x_29 * x_54 + 66 x_29 * x_58
   + 10 x_29 * x_65 + 44 x_29 * x_67 + 86 x_29 * x_70 + 86 x_29 * x_73
   + 60 x_29 * x_78 + 88 x_29 * x_92 + 32 x_29 * x_95 + 70 x_30 * x_31
   + 50 x_30 * x_33 + 60 x_30 * x_35 + 62 x_30 * x_36 + 46 x_30 * x_37
   + 14 x_30 * x_44 + 82 x_30 * x_45 + 20 x_30 * x_48 + 92 x_30 * x_49
   + 42 x_30 * x_52 + 86 x_30 * x_58 + 58 x_30 * x_72 + 78 x_30 * x_81
   + 28 x_30 * x_84 + 46 x_30 * x_85 + 10 x_30 * x_86 + 22 x_30 * x_89
   + 94 x_30 * x_99 + 96 x_31 * x_33 + 42 x_31 * x_35 + 18 x_31 * x_40
   + 80 x_31 * x_42 + 96 x_31 * x_43 + 28 x_31 * x_56 + 24 x_31 * x_57
   + 28 x_31 * x_58 + 58 x_31 * x_61 + 50 x_31 * x_63 + 98 x_31 * x_71
   + 44 x_31 * x_73 + 88 x_31 * x_74 + 14 x_31 * x_77 + 34 x_31 * x_78
   + 12 x_31 * x_86 + 90 x_31 * x_92 + 20 x_31 * x_100 + 60 x_32 * x_35
   + 6 x_32 * x_38 + 64 x_32 * x_43 + 34 x_32 * x_45 + 12 x_32 * x_46
   + 82 x_32 * x_48 + 18 x_32 * x_49 + 84 x_32 * x_51 + 12 x_32 * x_59
   + 52 x_32 * x_72 + 96 x_32 * x_75 + 62 x_32 * x_77 + 20 x_32 * x_82
   + 70 x_32 * x_83 + 80 x_32 * x_85 + 4 x_32 * x_88 + 12 x_32 * x_89
   + 56 x_32 * x_98 + 54 x_33 * x_37 + 30 x_33 * x_42 + 62 x_33 * x_45
   + 30 x_33 * x_48 + 6 x_33 * x_49 + 20 x_33 * x_54 + 28 x_33 * x_60
   + 38 x_33 * x_61 + 72 x_33 * x_62 + 92 x_33 * x_63 + 56 x_33 * x_68
   + 34 x_33 * x_71 + 74 x_33 * x_72 + 56 x_33 * x_74 + 94 x_33 * x_83
   + 50 x_33 * x_90 + 80 x_33 * x_91 + 54 x_33 * x_96 + 54 x_34 * x_35
   + 36 x_34 * x_37 + 82 x_34 * x_38 + 22 x_34 * x_51 + 74 x_34 * x_52
   + 52 x_34 * x_56 + 82 x_34 * x_57 + 48 x_34 * x_62 + 36 x_34 * x_65
   + 86 x_34 * x_68 + 54 x_34 * x_70 + 66 x_34 * x_72 + 52 x_34 * x_74
   + 20 x_34 * x_78 + 100 x_34 * x_79 + 32 x_34 * x_83 + 48 x_34 * x_90
   + 28 x_34 * x_91 + 26 x_34 * x_95 + 80 x_35 * x_39 + 32 x_35 * x_42
   + 2 x_35 * x_44 + 98 x_35 * x_47 + 80 x_35 * x_48 + 32 x_35 * x_52
   + 60 x_35 * x_55 + 42 x_35 * x_57 + 54 x_35 * x_59 + 6 x_35 * x_68
   + 42 x_35 * x_75 + 62 x_35 * x_76 + 80 x_35 * x_77 + 12 x_35 * x_81
   + 10 x_35 * x_83 + 54 x_35 * x_90 + 4 x_35 * x_91 + 100 x_35 * x_92
   + 72 x_35 * x_96 + 94 x_36 * x_37 + 72 x_36 * x_41 + 92 x_36 * x_47
   + 16 x_36 * x_56 + 38 x_36 * x_64 + 56 x_36 * x_65 + 78 x_36 * x_66
   + 68 x_36 * x_67 + 12 x_36 * x_70 + 26 x_36 * x_71 + 74 x_36 * x_74
   + 2 x_36 * x_76 + 78 x_36 * x_77 + 12 x_36 * x_78 + 58 x_36 * x_79
   + 92 x_36 * x_80 + 26 x_36 * x_84 + 94 x_36 * x_91 + 60 x_36 * x_97
   + 6 x_36 * x_99 + 74 x_36 * x_100 + 100 x_37 * x_50 + 78 x_37 * x_55
   + 50 x_37 * x_57 + 6 x_37 * x_60 + 62 x_37 * x_67 + 44 x_37 * x_70
   + 28 x_37 * x_71 + 24 x_37 * x_76 + 10 x_37 * x_79 + 60 x_37 * x_85
   + 6 x_37 * x_86 + 4 x_37 * x_91 + 92 x_37 * x_92 + 4 x_37 * x_93
   + 74 x_37 * x_95 + 62 x_37 * x_96 + 54 x_37 * x_97 + 16 x_37 * x_98
   + 10 x_38 * x_43 + 78 x_38 * x_44 + 64 x_38 * x_45 + 94 x_38 * x_51
   + 58 x_38 * x_59 + 38 x_38 * x_60 + 24 x_38 * x_61 + 66 x_38 * x_66
   + 32 x_38 * x_67 + 32 x_38 * x_78 + 42 x_38 * x_84 + 64 x_38 * x_91
   + 86 x_38 * x_94 + 86 x_38 * x_95 + 40 x_38 * x_99 + 56 x_39 * x_48
   + 44 x_39 * x_53 + 86 x_39 * x_54 + 68 x_39 * x_55 + 4 x_39 * x_61
   + 80 x_39 * x_65 + 56 x_39 * x_72 + 40 x_39 * x_80 + 54 x_39 * x_81
   + 82 x_39 * x_90 + 54 x_39 * x_92 + 56 x_39 * x_99 + 52 x_40 * x_41
   + 20 x_40 * x_43 + 90 x_40 * x_57 + 10 x_40 * x_63 + 28 x_40 * x_68
   + 84 x_40 * x_74 + 38 x_40 * x_81 + 60 x_40 * x_82 + 64 x_40 * x_83
   + 44 x_40 * x_93 + 32 x_40 * x_94 + 24 x_40 * x_95 + 68 x_41 * x_45
   + 4 x_41 * x_46 + 86 x_41 * x_51 + 44 x_41 * x_63 + 72 x_41 * x_65
   + 78 x_41 * x_71 + 8 x_41 * x_79 + 20 x_41 * x_82 + 8 x_41 * x_88
   + 90 x_41 * x_93 + 100 x_41 * x_95 + 42 x_41 * x_97 + 34 x_41 * x_98
   + 24 x_42 * x_43 + 40 x_42 * x_47 + 18 x_42 * x_50 + 38 x_42 * x_56
   + 26 x_42 * x_65 + 84 x_42 * x_78 + 32 x_42 * x_80 + 100 x_42 * x_86
   + 36 x_42 * x_88 + 100 x_42 * x_97 + 52 x_43 * x_46 + 16 x_43 * x_47
   + 6 x_43 * x_48 + 90 x_43 * x_57 + 40 x_43 * x_60 + 44 x_43 * x_61
   + 72 x_43 * x_66 + 40 x_43 * x_67 + 94 x_43 * x_70 + 76 x_43 * x_78
   + 64 x_43 * x_79 + 18 x_43 * x_94 + 22 x_43 * x_96 + 38 x_43 * x_97
   + 94 x_43 * x_99 + 32 x_44 * x_47 + 54 x_44 * x_52 + 2 x_44 * x_56
   + 38 x_44 * x_59 + 98 x_44 * x_64 + 56 x_44 * x_70 + 12 x_44 * x_72
   + 66 x_44 * x_73 + 12 x_44 * x_74 + 62 x_44 * x_75 + 4 x_44 * x_78
   + 20 x_44 * x_81 + 74 x_44 * x_88 + 66 x_44 * x_89 + 98 x_44 * x_92
   + 14 x_44 * x_100 + 16 x_45 * x_46 + 48 x_45 * x_52 + 58 x_45 * x_55
   + 38 x_45 * x_56 + 18 x_45 * x_57 + 26 x_45 * x_68 + 96 x_45 * x_72
   + 42 x_45 * x_74 + 42 x_45 * x_75 + 4 x_45 * x_76 + 62 x_45 * x_80
   + 76 x_45 * x_82 + 14 x_45 * x_85 + 30 x_45 * x_90 + 80 x_45 * x_95
   + 4 x_45 * x_100 + 56 x_46 * x_48 + 72 x_46 * x_50 + 12 x_46 * x_51
   + 70 x_46 * x_54 + 42 x_46 * x_55 + 70 x_46 * x_56 + 14 x_46 * x_60
   + 22 x_46 * x_62 + 36 x_46 * x_67 + 76 x_46 * x_68 + 86 x_46 * x_71
   + 58 x_46 * x_72 + 14 x_46 * x_78 + 64 x_46 * x_82 + 4 x_46 * x_83
   + 22 x_46 * x_86 + 20 x_46 * x_87 + 6 x_46 * x_93 + 80 x_46 * x_94
   + 68 x_47 * x_49 + 32 x_47 * x_60 + 20 x_47 * x_68 + 54 x_47 * x_72
   + 74 x_47 * x_73 + 70 x_47 * x_82 + 44 x_47 * x_83 + 68 x_47 * x_86
   + 64 x_47 * x_93 + 34 x_47 * x_99 + 20 x_48 * x_52 + 34 x_48 * x_55
   + 50 x_48 * x_60 + 92 x_48 * x_62 + 14 x_48 * x_63 + 100 x_48 * x_65
   + 38 x_48 * x_68 + 50 x_48 * x_73 + 86 x_48 * x_74 + 78 x_48 * x_75
   + 96 x_48 * x_76 + 10 x_48 * x_78 + 42 x_48 * x_79 + 40 x_48 * x_84
   + 86 x_48 * x_96 + 98 x_48 * x_98 + 56 x_49 * x_50 + 62 x_49 * x_58
   + 84 x_49 * x_60 + 52 x_49 * x_61 + 88 x_49 * x_62 + 78 x_49 * x_65
   + 42 x_49 * x_73 + 78 x_49 * x_74 + 64 x_49 * x_77 + 50 x_49 * x_78
   + 28 x_49 * x_81 + 96 x_49 * x_83 + 16 x_49 * x_87 + 90 x_49 * x_93
   + 54 x_50 * x_54 + 30 x_50 * x_55 + 92 x_50 * x_58 + 22 x_50 * x_59
   + 80 x_50 * x_62 + 64 x_50 * x_71 + 4 x_50 * x_73 + 44 x_50 * x_76
   + 90 x_50 * x_79 + 94 x_50 * x_81 + 78 x_50 * x_86 + 70 x_50 * x_89
   + 12 x_50 * x_95 + 74 x_51 * x_56 + 94 x_51 * x_59 + 88 x_51 * x_61
   + 64 x_51 * x_64 + 16 x_51 * x_67 + 46 x_51 * x_76 + 88 x_51 * x_83
   + 84 x_51 * x_88 + 56 x_51 * x_90 + 98 x_51 * x_97 + 12 x_51 * x_100
   + 8 x_52 * x_54 + 26 x_52 * x_57 + 60 x_52 * x_65 + 42 x_52 * x_70
   + 2 x_52 * x_72 + 94 x_52 * x_74 + 34 x_52 * x_76 + 12 x_52 * x_82
   + 36 x_52 * x_95 + 70 x_52 * x_99 + 86 x_53 * x_61 + 60 x_53 * x_66
   + 42 x_53 * x_89 + 48 x_53 * x_94 + 12 x_54 * x_57 + 36 x_54 * x_61
   + 34 x_54 * x_63 + 56 x_54 * x_66 + 44 x_54 * x_69 + 42 x_54 * x_70
   + 54 x_54 * x_79 + 80 x_54 * x_83 + 2 x_54 * x_85 + 80 x_54 * x_87
   + 4 x_54 * x_90 + 34 x_54 * x_92 + 62 x_54 * x_99 + 62 x_54 * x_100
   + 78 x_55 * x_59 + 46 x_55 * x_61 + 42 x_55 * x_62 + 60 x_55 * x_77
   + 52 x_55 * x_83 + 72 x_55 * x_90 + 58 x_55 * x_92 + 34 x_55 * x_93
   + 36 x_55 * x_94 + 94 x_55 * x_100 + 36 x_56 * x_58 + 54 x_56 * x_69
   + 16 x_56 * x_70 + 16 x_56 * x_71 + 14 x_56 * x_72 + 64 x_56 * x_75
   + 88 x_56 * x_76 + 82 x_56 * x_79 + 96 x_56 * x_90 + 60 x_56 * x_91
   + 34 x_56 * x_92 + 42 x_56 * x_98 + 90 x_56 * x_100 + 48 x_57 * x_58
   + 30 x_57 * x_61 + 62 x_57 * x_75 + 64 x_57 * x_78 + 6 x_57 * x_80
   + 18 x_57 * x_89 + 98 x_57 * x_97 + 28 x_57 * x_98 + 40 x_58 * x_60
   + 44 x_58 * x_68 + 82 x_58 * x_69 + 56 x_58 * x_74 + 6 x_58 * x_76
   + 94 x_58 * x_80 + 52 x_58 * x_91 + 28 x_58 * x_95 + 24 x_59 * x_64
   + 16 x_59 * x_65 + 38 x_59 * x_71 + 56 x_59 * x_78 + 10 x_59 * x_79
   + 14 x_59 * x_82 + 92 x_59 * x_83 + 22 x_59 * x_87 + 16 x_59 * x_92
   + 50 x_59 * x_94 + 50 x_59 * x_95 + 88 x_59 * x_96 + 70 x_59 * x_98
   + 64 x_60 * x_61 + 14 x_60 * x_62 + 10 x_60 * x_63 + 16 x_60 * x_67
   + 46 x_60 * x_68 + 12 x_60 * x_70 + 8 x_60 * x_78 + 28 x_60 * x_80
   + 30 x_60 * x_81 + 62 x_60 * x_85 + 86 x_60 * x_86 + 32 x_60 * x_88
   + 14 x_60 * x_91 + 4 x_60 * x_95 + 50 x_60 * x_96 + 18 x_60 * x_98
   + 60 x_61 * x_65 + 40 x_61 * x_69 + 28 x_61 * x_70 + 50 x_61 * x_71
   + 72 x_61 * x_72 + 60 x_61 * x_73 + 28 x_61 * x_76 + 22 x_61 * x_84
   + 92 x_61 * x_88 + 20 x_61 * x_90 + 14 x_61 * x_93 + 14 x_62 * x_63
   + 92 x_62 * x_65 + 92 x_62 * x_68 + 76 x_62 * x_72 + 16 x_62 * x_74
   + 98 x_62 * x_75 + 96 x_62 * x_79 + 84 x_62 * x_87 + 98 x_62 * x_90
   + 52 x_62 * x_92 + 32 x_62 * x_96 + 56 x_62 * x_98 + 46 x_62 * x_99
   + 72 x_62 * x_100 + 82 x_63 * x_64 + 38 x_63 * x_66 + 100 x_63 * x_69
   + 24 x_63 * x_71 + 92 x_63 * x_72 + 10 x_63 * x_76 + 12 x_63 * x_78
   + 4 x_63 * x_80 + 36 x_63 * x_81 + 72 x_63 * x_85 + 18 x_63 * x_90
   + 40 x_63 * x_96 + 2 x_64 * x_72 + 88 x_64 * x_75 + 44 x_64 * x_76
   + 86 x_64 * x_80 + 32 x_64 * x_81 + 52 x_64 * x_89 + 78 x_64 * x_90
   + 68 x_64 * x_99 + 2 x_65 * x_67 + 66 x_65 * x_76 + 14 x_65 * x_80
   + 48 x_65 * x_83 + 72 x_65 * x_84 + 84 x_65 * x_87 + 8 x_65 * x_93
   + 30 x_66 * x_67 + 4 x_66 * x_68 + 48 x_66 * x_71 + 72 x_66 * x_74
   + 84 x_66 * x_75 + 44 x_66 * x_76 + 100 x_66 * x_77 + 90 x_66 * x_78
   + 48 x_66 * x_83 + 88 x_66 * x_91 + 62 x_66 * x_95 + 44 x_66 * x_98
   + 40 x_66 * x_100 + 18 x_67 * x_69 + 20 x_67 * x_70 + 34 x_67 * x_75
   + 28 x_67 * x_76 + 60 x_67 * x_78 + 58 x_67 * x_80 + 38 x_67 * x_83
   + 88 x_67 * x_91 + 42 x_67 * x_99 + 68 x_68 * x_70 + 78 x_68 * x_74
   + 94 x_68 * x_76 + 32 x_68 * x_79 + 86 x_68 * x_82 + 10 x_68 * x_84
   + 58 x_68 * x_86 + 20 x_68 * x_88 + 46 x_68 * x_90 + 42 x_68 * x_98
   + 72 x_69 * x_80 + 4 x_69 * x_84 + 12 x_69 * x_90 + 34 x_69 * x_92
   + 20 x_69 * x_98 + 4 x_69 * x_100 + 76 x_70 * x_74 + 6 x_70 * x_76
   + 14 x_70 * x_81 + 82 x_70 * x_91 + 62 x_70 * x_92 + 18 x_70 * x_96
   + 44 x_70 * x_98 + 40 x_71 * x_74 + 70 x_71 * x_75 + 86 x_71 * x_81
   + 90 x_71 * x_82 + 18 x_71 * x_88 + 94 x_71 * x_89 + 30 x_71 * x_95
   + 2 x_71 * x_100 + 40 x_72 * x_74 + 2 x_72 * x_82 + 44 x_72 * x_86
   + 30 x_72 * x_92 + 54 x_72 * x_98 + 100 x_72 * x_100 + 68 x_73 * x_74
   + 24 x_73 * x_80 + 32 x_73 * x_87 + 72 x_73 * x_94 + 10 x_73 * x_100
   + 88 x_74 * x_77 + 82 x_74 * x_80 + 90 x_74 * x_84 + 66 x_74 * x_88
   + 78 x_74 * x_89 + 86 x_74 * x_90 + 40 x_74 * x_91 + 58 x_74 * x_94
   + 70 x_74 * x_95 + 42 x_74 * x_96 + 24 x_75 * x_78 + 60 x_75 * x_84
   + 56 x_75 * x_85 + 48 x_75 * x_89 + 70 x_75 * x_90 + 40 x_75 * x_92
   + 2 x_75 * x_96 + 42 x_75 * x_98 + 62 x_76 * x_78 + 20 x_76 * x_79
   + 22 x_76 * x_81 + 82 x_76 * x_82 + 64 x_76 * x_83 + 18 x_76 * x_87
   + 52 x_76 * x_89 + 20 x_76 * x_91 + 54 x_77 * x_82 + 26 x_77 * x_83
   + 46 x_77 * x_96 + 100 x_77 * x_97 + 58 x_78 * x_79 + 58 x_78 * x_80
   + 8 x_78 * x_81 + 64 x_78 * x_85 + 52 x_78 * x_88 + 6 x_78 * x_96
   + 84 x_79 * x_82 + 74 x_79 * x_88 + 38 x_79 * x_89 + 92 x_80 * x_81
   + 50 x_80 * x_86 + 48 x_80 * x_94 + 40 x_80 * x_96 + 100 x_80 * x_97
   + 48 x_80 * x_98 + 54 x_81 * x_93 + 68 x_81 * x_96 + 16 x_81 * x_100
   + 22 x_82 * x_83 + 92 x_82 * x_91 + 54 x_82 * x_93 + 100 x_82 * x_94
   + 34 x_83 * x_84 + 32 x_83 * x_86 + 32 x_83 * x_87 + 90 x_83 * x_89
   + 26 x_83 * x_93 + 18 x_83 * x_94 + 86 x_83 * x_95 + 40 x_83 * x_96
   + 68 x_83 * x_99 + 2 x_83 * x_100 + 32 x_84 * x_85 + 64 x_84 * x_92
   + 36 x_84 * x_95 + 12 x_84 * x_96 + 44 x_85 * x_86 + 68 x_85 * x_88
   + 52 x_85 * x_90 + 46 x_85 * x_91 + 86 x_85 * x_92 + 90 x_85 * x_100
   + 8 x_86 * x_92 + 18 x_86 * x_96 + 18 x_87 * x_89 + 2 x_87 * x_92
   + 86 x_87 * x_100 + 32 x_88 * x_98 + 86 x_89 * x_91 + 82 x_89 * x_96
   + 76 x_89 * x_98 + 36 x_90 * x_93 + 82 x_90 * x_97 + 32 x_90 * x_99
   + 82 x_90 * x_100 + 60 x_91 * x_93 + 68 x_91 * x_96 + 56 x_91 * x_97
   + 16 x_92 * x_93 + 26 x_92 * x_97 + 96 x_93 * x_97 + 62 x_94 * x_95
   + 2 x_95 * x_97 + 62 x_95 * x_99 + 68 x_96 * x_99 + 98 x_96 * x_100
   + 22 x_98 * x_99 ] / 2 
Subject To
 R0: 5 x_1 + 13 x_2 + 11 x_3 + 14 x_4 + 17 x_5 + 8 x_6 + 14 x_7 + 4 x_8
   + 11 x_9 + 20 x_10 + 12 x_11 + 24 x_12 + 4 x_13 + 4 x_14 + 3 x_15
   + 19 x_16 + 24 x_17 + 7 x_18 + 18 x_19 + 20 x_20 + 16 x_21 + 24 x_22
   + 16 x_23 + 2 x_24 + 23 x_25 + 8 x_26 + 19 x_27 + 22 x_28 + 8 x_29
   + 14 x_30 + 4 x_31 + 20 x_32 + 10 x_33 + 5 x_34 + 13 x_35 + x_36
   + 3 x_37 + 18 x_38 + 3 x_39 + 24 x_40 + 19 x_41 + 6 x_42 + 21 x_43
   + 14 x_44 + 5 x_45 + 24 x_46 + 4 x_47 + x_48 + 17 x_49 + 24 x_50
   + 16 x_51 + 21 x_52 + 11 x_53 + 20 x_54 + 22 x_55 + 22 x_56 + 2 x_57
   + 18 x_58 + 5 x_59 + 14 x_60 + 14 x_61 + 14 x_62 + 12 x_63 + 23 x_64
   + 6 x_65 + 18 x_66 + 14 x_67 + 8 x_68 + x_69 + 12 x_70 + 23 x_71
   + 3 x_72 + 16 x_73 + 22 x_74 + 3 x_75 + 4 x_76 + 20 x_77 + 19 x_78
   + 25 x_79 + 23 x_80 + 8 x_81 + 16 x_82 + 12 x_83 + 10 x_84 + 5 x_85
   + 13 x_86 + 3 x_87 + 11 x_88 + 10 x_89 + 25 x_90 + 9 x_91 + 22 x_92
   + 4 x_93 + 10 x_94 + 7 x_95 + 19 x_96 + 13 x_97 + 20 x_98 + 6 x_99
   + 11 x_100 <= 150
Bounds
Binaries
 x_1 x_2 x_3 x_4 x_5 x_6 x_7 x_8 x_9 x_10 x_11 x_12 x_13 x_14 x_15 x_16
 x_17 x_18 x_19 x_20 x_21 x_22 x_23 x_24 x_25 x_26 x_27 x_28 x_29 x_30 x_31
 x_32 x_33 x_34 x_35 x_36 x_37 x_38 x_39 x_40 x_41 x_42 x_43 x_44 x_45 x_46
 x_47 x_48 x_49 x_50 x_51 x_52 x_53 x_54 x_55 x_56 x_57 x_58 x_59 x_60 x_61
 x_62 x_63 x_64 x_65 x_66 x_67 x_68 x_69 x_70 x_71 x_72 x_73 x_74 x_75 x_76
 x_77 x_78 x_79 x_80 x_81 x_82 x_83 x_84 x_85 x_86 x_87 x_88 x_89 x_90 x_91
 x_92 x_93 x_94 x_95 x_96 x_97 x_98 x_99 x_100
End
